INCAR created by Atomic Simulation Environment
 ENCUT = 500.000000
 KSPACING = 0.800000
 SIGMA = 0.050000
 EDIFF = 1.00e-05
 ALGO = Fast
 GGA = PE
 PREC = High
 ICHARG = 1
 ISMEAR = 0
 ISPIN = 2
 ISTART = 0
 KPAR = 1
 LDAUTYPE = 2
 LMAXMIX = 4
 LORBIT = 11
 NELM = 800
 NELMIN = 4
 NPAR = 8
 NSIM = 8
 NSW = 0
 IVDW = 11
 LCHARG = .FALSE.
 LDAU = .TRUE.
 LWAVE = .FALSE.
 LREAL = .FALSE.
 LDAUL = -1 -1 2 2 2
 LDAUU = 0.000 0.000 4.840 5.140 6.370
 LDAUJ = 0.000 0.000 0.000 0.000 0.000
 MAGMOM = 81*0.0000 18*4.0000 9*3.0000 
