Ni Cu O  H                              
   1.00000000000000     
    12.6169928000000002    0.0000000000000000    0.0000000000000000
    -6.3092572000000002   10.9294983999999999    0.0000000000000000
     0.0000000000000000    0.0000000000000000   32.0000000000000000
   Ni   Cu   O    H 
    41     7    96    48
Selective dynamics
Direct
  0.0471470240722809  0.4521965470534468  0.2757804690961549   F   F   F
  0.0471470240722809  0.7021965470534468  0.2757804690961549   F   F   F
  0.5471470240722809  0.4521965470534468  0.2757804690961549   F   F   F
  0.5471470240722809  0.7021965470534468  0.2757804690961549   F   F   F
  0.0471470240722809  0.2021965470534468  0.2757804690961549   F   F   F
  0.0471470240722809  0.9521965470534468  0.2757804690961549   F   F   F
  0.5471470240722809  0.2021965470534468  0.2757804690961549   F   F   F
  0.5471470240722809  0.9521965470534468  0.2757804690961549   F   F   F
  0.2969091902241274  0.7020837425065309  0.2759404204696310   F   F   F
  0.7969091902241274  0.7020837425065309  0.2759404204696310   F   F   F
  0.2969091902241274  0.2020837425065309  0.2759404204696310   F   F   F
  0.2969091902241274  0.4520837425065309  0.2759404204696310   F   F   F
  0.2969091902241274  0.9520837425065309  0.2759404204696310   F   F   F
  0.7969091902241274  0.2020837425065309  0.2759404204696310   F   F   F
  0.7969091902241274  0.4520837425065309  0.2759404204696310   F   F   F
  0.7969091902241274  0.9520837425065309  0.2759404204696310   F   F   F
  0.3879099722735437  0.6335987071272430  0.4108472553603886   T   T   T
  0.8885223266100754  0.6354290141747937  0.4089054469413435   T   T   T
  0.3919482924218242  0.1352059111401774  0.4090376085389190   T   T   T
  0.3906549370669057  0.3819320034438501  0.4103879897750801   T   T   T
  0.3885004901320913  0.8805279622569883  0.4097782201707801   T   T   T
  0.8877428380599645  0.1280084149413458  0.4104453628645617   T   T   T
  0.8892907045210925  0.3816193561419188  0.4091520753728125   T   T   T
  0.8871646807189144  0.8828115687397198  0.4095660301593499   T   T   T
  0.1370676588079545  0.1288964564616914  0.4099088903718535   T   T   T
  0.1328914969295896  0.3791123718590851  0.4094713412202325   T   T   T
  0.1338042716895530  0.6306089477527484  0.4090094345683638   T   T   T
  0.6354174895820770  0.1333314958650912  0.4107013911854674   T   T   T
  0.6383410746990834  0.3774587161310742  0.4104642257239490   T   T   T
  0.6390834761519018  0.6343772801611123  0.4102513562218087   T   T   T
  0.1327772225052283  0.8827284832934394  0.4089355778701736   T   T   T
  0.6380538577363979  0.8809407148580602  0.4110492485597592   T   T   T
  0.2370425953657698  0.0526227196917874  0.5435927553902893   T   T   T
  0.2191929607052355  0.8135777584422049  0.5421123280008281   T   T   T
  0.7310131622736001  0.0685355159665578  0.5481848807613422   T   T   T
  0.7400174974828257  0.3145634798340748  0.5457121638947291   T   T   T
  0.4704564436445748  0.0481805802636383  0.5466580609829493   T   T   T
  0.9722979603287539  0.0564380638087927  0.5450528325472922   T   T   T
  0.9732740154911765  0.5568001030999844  0.5432082749489444   T   T   T
  0.9743322469479000  0.8137563903390553  0.5416375445418583   T   T   T
  0.9631026229982128  0.2991131611243848  0.5473732483398855   T   T   T
  0.2165397328565985  0.3021875336590941  0.5402571612072979   T   T   T
  0.2171213049027291  0.5539779900091947  0.5324869009513923   T   T   T
  0.7424168990251874  0.5691382501679532  0.5454260357319787   T   T   T
  0.7371999280606170  0.8228435361263248  0.5489125488360168   T   T   T
  0.4798396159248398  0.5676087024523543  0.5402708069008851   T   T   T
  0.4730497036278105  0.8098678445723921  0.5428466431076208   T   T   T
  0.4721014268205533  0.3232630109121595  0.5314193808158422   T   T   T
  0.1218553589538161  0.3571035395162880  0.2452248283536278   F   F   F
  0.1218553589538161  0.8571035395162880  0.2452248283536278   F   F   F
  0.6218553589538161  0.3571035395162880  0.2452248283536278   F   F   F
  0.6218553589538161  0.8571035395162880  0.2452248283536278   F   F   F
  0.1218553589538161  0.1071035395162880  0.2452248283536278   F   F   F
  0.1218553589538161  0.6071035395162880  0.2452248283536278   F   F   F
  0.6218553589538161  0.1071035395162880  0.2452248283536278   F   F   F
  0.6218553589538161  0.6071035395162880  0.2452248283536278   F   F   F
  0.3841368778156209  0.6246568588042365  0.2510485585356435   F   F   F
  0.8841368778156209  0.6246568588042365  0.2510485585356435   F   F   F
  0.3841368778156209  0.1246568588042365  0.2510485585356435   F   F   F
  0.3841368778156209  0.3746568588042365  0.2510485585356435   F   F   F
  0.3841368778156209  0.8746568588042365  0.2510485585356435   F   F   F
  0.8841368778156209  0.1246568588042365  0.2510485585356435   F   F   F
  0.8841368778156209  0.3746568588042365  0.2510485585356435   F   F   F
  0.8841368778156209  0.8746568588042365  0.2510485585356435   F   F   F
  0.2094535872676531  0.0292586444456049  0.3008948000938716   F   F   F
  0.2094535872676531  0.2792586444456049  0.3008948000938716   F   F   F
  0.2094535872676531  0.5292586444456049  0.3008948000938716   F   F   F
  0.7094535872676531  0.0292586444456049  0.3008948000938716   F   F   F
  0.7094535872676531  0.2792586444456049  0.3008948000938716   F   F   F
  0.7094535872676531  0.5292586444456049  0.3008948000938716   F   F   F
  0.2094535872676531  0.7792586444456049  0.3008948000938716   F   F   F
  0.7094535872676531  0.7792586444456049  0.3008948000938716   F   F   F
  0.4729504233659654  0.0475219698780549  0.3061198648878118   F   F   F
  0.4729504233659654  0.2975219698780549  0.3061198648878118   F   F   F
  0.4729504233659654  0.5475219698780549  0.3061198648878118   F   F   F
  0.9729504233659654  0.0475219698780549  0.3061198648878118   F   F   F
  0.9729504233659654  0.2975219698780549  0.3061198648878118   F   F   F
  0.9729504233659654  0.5475219698780549  0.3061198648878118   F   F   F
  0.4729504233659654  0.7975219698780549  0.3061198648878118   F   F   F
  0.9729504233659654  0.7975219698780549  0.3061198648878118   F   F   F
  0.2107327115292761  0.2867744204948257  0.3804410948953574   T   T   T
  0.2070857078066707  0.5350718284057903  0.3794230324006610   T   T   T
  0.7214087805855189  0.2906072552022765  0.3798149763542172   T   T   T
  0.7194625908253237  0.5376054463642691  0.3805533809509642   T   T   T
  0.2101170506352457  0.0367399806018710  0.3789158223551846   T   T   T
  0.2088162707343823  0.7894361862152640  0.3796997528807234   T   T   T
  0.7098492747786316  0.0408382330240511  0.3810786141018045   T   T   T
  0.7112694925012468  0.7893536226511094  0.3798880419016573   T   T   T
  0.4786569979429872  0.0604122343491491  0.3840482852717851   T   T   T
  0.4793441396413009  0.3001232031128954  0.3843827258356130   T   T   T
  0.4776120598256607  0.5601403966904370  0.3855179543412480   T   T   T
  0.9745751454020791  0.0495433754269276  0.3844814217782891   T   T   T
  0.9717060893869959  0.2992615484300768  0.3845110952115506   T   T   T
  0.9740883517270130  0.5575699781818565  0.3836639180084635   T   T   T
  0.4767648932293575  0.7977966567245995  0.3853975879749638   T   T   T
  0.9743076402977122  0.8101148738793692  0.3830983913413016   T   T   T
  0.2975160366840340  0.4645288257169572  0.4357081619160343   T   T   T
  0.2938583087446774  0.7047397545762680  0.4348323875357342   T   T   T
  0.7972097032564229  0.2077995999756241  0.4375417043683432   T   T   T
  0.8019013125543681  0.4573156252607589  0.4368329480216823   T   T   T
  0.8029321522628760  0.7133436686360268  0.4339527465992341   T   T   T
  0.3012574230250993  0.2039182221247730  0.4344767397238992   T   T   T
  0.2983661873362961  0.9663808747996213  0.4350699845270438   T   T   T
  0.8005927137247397  0.9584702609551830  0.4359767150919459   T   T   T
  0.0595044183160399  0.2220333782814414  0.4402243146623442   T   T   T
  0.0528024125845867  0.4705037397114488  0.4390591403160443   T   T   T
  0.0550143423901201  0.7271352855558657  0.4385139100608030   T   T   T
  0.5677901086330388  0.2239055423983383  0.4391129880027383   T   T   T
  0.5673716390834277  0.4771248187743860  0.4406853180661758   T   T   T
  0.5663988757827562  0.7279538037837526  0.4429049207316922   T   T   T
  0.0621013825065306  0.9743816667797992  0.4404780749320730   T   T   T
  0.5623341225187615  0.9765948249917358  0.4415176803081746   T   T   T
  0.2381348500921745  0.4311021536321118  0.5088541961127964   T   T   T
  0.8287709472524883  0.4566444169305480  0.5138358321221252   T   T   T
  0.2995671787485228  0.9652890313468186  0.5135808309100073   T   T   T
  0.3138399298403075  0.1904604768938609  0.5100989921459398   T   T   T
  0.2583159803460475  0.7158439766341014  0.5096274090088402   T   T   T
  0.8001904104214987  0.9710403681442138  0.5156922611020268   T   T   T
  0.8042206569296988  0.2211769101497465  0.5170823618364861   T   T   T
  0.8113694190314081  0.7141780613438641  0.5120264888521466   T   T   T
  0.0661779262751155  0.9797470293159372  0.5191748129841831   T   T   T
  0.0438478877498974  0.4655377302611022  0.5194863921103345   T   T   T
  0.5670817697616835  0.9832786364700983  0.5230921982706888   T   T   T
  0.5842879108623684  0.5001559698741441  0.5227236103488375   T   T   T
  0.0472680792314704  0.2156798296328348  0.5211534163120198   T   T   T
  0.0643909758748488  0.7530929385045076  0.5151784826816933   T   T   T
  0.5749168965184426  0.2445794610011053  0.5187229035361848   T   T   T
  0.5771537782923484  0.7426459562778652  0.5256689012472635   T   T   T
  0.3825420046768910  0.1079270078102538  0.5729290149955110   T   T   T
  0.3763463288381651  0.6335058048876947  0.5530120815731552   T   T   T
  0.3770053800989769  0.8777820186288130  0.5675822316659266   T   T   T
  0.8874999271598056  0.1383265530176896  0.5730991448699180   T   T   T
  0.9011994742963294  0.6434303166444397  0.5679007702263829   T   T   T
  0.8995472854302367  0.8957484859921832  0.5698264777762257   T   T   T
  0.3827661297738867  0.3953019750481735  0.5547801216277924   T   T   T
  0.8829440708396710  0.3700774396872609  0.5761383017303860   T   T   T
  0.1275209359466239  0.6586464958510200  0.5736440946942831   T   T   T
  0.6881316141338129  0.6914294949999511  0.5861731664118816   T   T   T
  0.1757602097867593  0.1503211988499976  0.5728566941187621   T   T   T
  0.0978203801351187  0.3692850732970165  0.5831202767656797   T   T   T
  0.1697805434381793  0.9067059239478473  0.5787236813449258   T   T   T
  0.6446240815141615  0.1584024982345356  0.5768044360716205   T   T   T
  0.6912606322252908  0.4155246604637813  0.5777734918473051   T   T   T
  0.6721342926861711  0.9419661068874268  0.5871436020356594   T   T   T
  0.1190395251330045  0.1016150382716035  0.2127353864699586   F   F   F
  0.1190395251330045  0.3516150382716035  0.2127353864699586   F   F   F
  0.1190395251330045  0.6016150382716035  0.2127353864699586   F   F   F
  0.1190395251330045  0.8516150382716035  0.2127353864699586   F   F   F
  0.6190395251330045  0.1016150382716035  0.2127353864699586   F   F   F
  0.6190395251330045  0.3516150382716035  0.2127353864699586   F   F   F
  0.6190395251330045  0.6016150382716035  0.2127353864699586   F   F   F
  0.6190395251330045  0.8516150382716035  0.2127353864699586   F   F   F
  0.4753909895237314  0.5531384263369219  0.3388636443902158   F   F   F
  0.9753909895237314  0.5531384263369219  0.3388636443902158   F   F   F
  0.4753909895237314  0.0531384263369219  0.3388636443902158   F   F   F
  0.4753909895237314  0.3031384263369219  0.3388636443902158   F   F   F
  0.4753909895237314  0.8031384263369219  0.3388636443902158   F   F   F
  0.9753909895237314  0.0531384263369219  0.3388636443902158   F   F   F
  0.9753909895237314  0.3031384263369219  0.3388636443902158   F   F   F
  0.9753909895237314  0.8031384263369219  0.3388636443902158   F   F   F
  0.2064559251638150  0.5309956630116721  0.3468494632641470   T   T   T
  0.7156780009444584  0.5329204490991091  0.3481829666607942   T   T   T
  0.2066886053309183  0.0314336672051525  0.3461971238981565   T   T   T
  0.2083354708445936  0.2818036295353576  0.3481107342945756   T   T   T
  0.2067406421909614  0.7835236505656982  0.3472543605155061   T   T   T
  0.7072810269110291  0.0353279075484247  0.3487491494733859   T   T   T
  0.7152084126698584  0.2839691582864187  0.3471219153758242   T   T   T
  0.7079320029365676  0.7835556399467370  0.3473069680280825   T   T   T
  0.0584861021938150  0.7385849467618306  0.4715364160188387   T   T   T
  0.5749892564974015  0.7369135864009897  0.4745700914719259   T   T   T
  0.0568504400116222  0.2242082513012875  0.4722233127100048   T   T   T
  0.0470372499884169  0.4680466101743885  0.4713971454862708   T   T   T
  0.0656937165213109  0.9782486117686154  0.4734752767419382   T   T   T
  0.5778743657656950  0.2368950367458076  0.4866365784383592   T   T   T
  0.5777299743760900  0.4889255044930320  0.4722496095148218   T   T   T
  0.5654720375324918  0.9818313989791945  0.4736147536838624   T   T   T
  0.3036322483210974  0.1854409943883522  0.4766004152082675   T   T   T
  0.2811799690303434  0.4541939942516547  0.4687357776500192   T   T   T
  0.7978828163957422  0.9629194047540784  0.4832005542172506   T   T   T
  0.7974199181278725  0.2117741448932367  0.4698283959353429   T   T   T
  0.8101414157640522  0.4532177150394722  0.4695081467211021   T   T   T
  0.2960986244383447  0.9665691879342451  0.4674796400198994   T   T   T
  0.2713802454561552  0.7177369445503264  0.4766630388193100   T   T   T
  0.8083065564267095  0.7077442623073086  0.4795756365485016   T   T   T
  0.2088652397872927  0.1714094395555557  0.6011870238695360   T   T   T
  0.0648808343470291  0.3723553996077336  0.6104373224051379   T   T   T
  0.1062644530629482  0.6775026925418102  0.6009697992864866   T   T   T
  0.2302719653349115  0.9373107597477197  0.6015282990086527   T   T   T
  0.6492523869187719  0.1653935523790471  0.6072188358028282   T   T   T
  0.7482342333625949  0.4439849254770773  0.6014712899812026   T   T   T
  0.7486523388905950  0.7245938096211914  0.6086628276993953   T   T   T
  0.7317458427836552  0.9730397470835608  0.6099487418341514   T   T   T
 
  0.00000000E+00  0.00000000E+00  0.00000000E+00
  0.00000000E+00  0.00000000E+00  0.00000000E+00
  0.00000000E+00  0.00000000E+00  0.00000000E+00
  0.00000000E+00  0.00000000E+00  0.00000000E+00
  0.00000000E+00  0.00000000E+00  0.00000000E+00
  0.00000000E+00  0.00000000E+00  0.00000000E+00
  0.00000000E+00  0.00000000E+00  0.00000000E+00
  0.00000000E+00  0.00000000E+00  0.00000000E+00
  0.00000000E+00  0.00000000E+00  0.00000000E+00
  0.00000000E+00  0.00000000E+00  0.00000000E+00
  0.00000000E+00  0.00000000E+00  0.00000000E+00
  0.00000000E+00  0.00000000E+00  0.00000000E+00
  0.00000000E+00  0.00000000E+00  0.00000000E+00
  0.00000000E+00  0.00000000E+00  0.00000000E+00
  0.00000000E+00  0.00000000E+00  0.00000000E+00
  0.00000000E+00  0.00000000E+00  0.00000000E+00
  0.00000000E+00  0.00000000E+00  0.00000000E+00
  0.00000000E+00  0.00000000E+00  0.00000000E+00
  0.00000000E+00  0.00000000E+00  0.00000000E+00
  0.00000000E+00  0.00000000E+00  0.00000000E+00
  0.00000000E+00  0.00000000E+00  0.00000000E+00
  0.00000000E+00  0.00000000E+00  0.00000000E+00
  0.00000000E+00  0.00000000E+00  0.00000000E+00
  0.00000000E+00  0.00000000E+00  0.00000000E+00
  0.00000000E+00  0.00000000E+00  0.00000000E+00
  0.00000000E+00  0.00000000E+00  0.00000000E+00
  0.00000000E+00  0.00000000E+00  0.00000000E+00
  0.00000000E+00  0.00000000E+00  0.00000000E+00
  0.00000000E+00  0.00000000E+00  0.00000000E+00
  0.00000000E+00  0.00000000E+00  0.00000000E+00
  0.00000000E+00  0.00000000E+00  0.00000000E+00
  0.00000000E+00  0.00000000E+00  0.00000000E+00
  0.00000000E+00  0.00000000E+00  0.00000000E+00
  0.00000000E+00  0.00000000E+00  0.00000000E+00
  0.00000000E+00  0.00000000E+00  0.00000000E+00
  0.00000000E+00  0.00000000E+00  0.00000000E+00
  0.00000000E+00  0.00000000E+00  0.00000000E+00
  0.00000000E+00  0.00000000E+00  0.00000000E+00
  0.00000000E+00  0.00000000E+00  0.00000000E+00
  0.00000000E+00  0.00000000E+00  0.00000000E+00
  0.00000000E+00  0.00000000E+00  0.00000000E+00
  0.00000000E+00  0.00000000E+00  0.00000000E+00
  0.00000000E+00  0.00000000E+00  0.00000000E+00
  0.00000000E+00  0.00000000E+00  0.00000000E+00
  0.00000000E+00  0.00000000E+00  0.00000000E+00
  0.00000000E+00  0.00000000E+00  0.00000000E+00
  0.00000000E+00  0.00000000E+00  0.00000000E+00
  0.00000000E+00  0.00000000E+00  0.00000000E+00
  0.00000000E+00  0.00000000E+00  0.00000000E+00
  0.00000000E+00  0.00000000E+00  0.00000000E+00
  0.00000000E+00  0.00000000E+00  0.00000000E+00
  0.00000000E+00  0.00000000E+00  0.00000000E+00
  0.00000000E+00  0.00000000E+00  0.00000000E+00
  0.00000000E+00  0.00000000E+00  0.00000000E+00
  0.00000000E+00  0.00000000E+00  0.00000000E+00
  0.00000000E+00  0.00000000E+00  0.00000000E+00
  0.00000000E+00  0.00000000E+00  0.00000000E+00
  0.00000000E+00  0.00000000E+00  0.00000000E+00
  0.00000000E+00  0.00000000E+00  0.00000000E+00
  0.00000000E+00  0.00000000E+00  0.00000000E+00
  0.00000000E+00  0.00000000E+00  0.00000000E+00
  0.00000000E+00  0.00000000E+00  0.00000000E+00
  0.00000000E+00  0.00000000E+00  0.00000000E+00
  0.00000000E+00  0.00000000E+00  0.00000000E+00
  0.00000000E+00  0.00000000E+00  0.00000000E+00
  0.00000000E+00  0.00000000E+00  0.00000000E+00
  0.00000000E+00  0.00000000E+00  0.00000000E+00
  0.00000000E+00  0.00000000E+00  0.00000000E+00
  0.00000000E+00  0.00000000E+00  0.00000000E+00
  0.00000000E+00  0.00000000E+00  0.00000000E+00
  0.00000000E+00  0.00000000E+00  0.00000000E+00
  0.00000000E+00  0.00000000E+00  0.00000000E+00
  0.00000000E+00  0.00000000E+00  0.00000000E+00
  0.00000000E+00  0.00000000E+00  0.00000000E+00
  0.00000000E+00  0.00000000E+00  0.00000000E+00
  0.00000000E+00  0.00000000E+00  0.00000000E+00
  0.00000000E+00  0.00000000E+00  0.00000000E+00
  0.00000000E+00  0.00000000E+00  0.00000000E+00
  0.00000000E+00  0.00000000E+00  0.00000000E+00
  0.00000000E+00  0.00000000E+00  0.00000000E+00
  0.00000000E+00  0.00000000E+00  0.00000000E+00
  0.00000000E+00  0.00000000E+00  0.00000000E+00
  0.00000000E+00  0.00000000E+00  0.00000000E+00
  0.00000000E+00  0.00000000E+00  0.00000000E+00
  0.00000000E+00  0.00000000E+00  0.00000000E+00
  0.00000000E+00  0.00000000E+00  0.00000000E+00
  0.00000000E+00  0.00000000E+00  0.00000000E+00
  0.00000000E+00  0.00000000E+00  0.00000000E+00
  0.00000000E+00  0.00000000E+00  0.00000000E+00
  0.00000000E+00  0.00000000E+00  0.00000000E+00
  0.00000000E+00  0.00000000E+00  0.00000000E+00
  0.00000000E+00  0.00000000E+00  0.00000000E+00
  0.00000000E+00  0.00000000E+00  0.00000000E+00
  0.00000000E+00  0.00000000E+00  0.00000000E+00
  0.00000000E+00  0.00000000E+00  0.00000000E+00
  0.00000000E+00  0.00000000E+00  0.00000000E+00
  0.00000000E+00  0.00000000E+00  0.00000000E+00
  0.00000000E+00  0.00000000E+00  0.00000000E+00
  0.00000000E+00  0.00000000E+00  0.00000000E+00
  0.00000000E+00  0.00000000E+00  0.00000000E+00
  0.00000000E+00  0.00000000E+00  0.00000000E+00
  0.00000000E+00  0.00000000E+00  0.00000000E+00
  0.00000000E+00  0.00000000E+00  0.00000000E+00
  0.00000000E+00  0.00000000E+00  0.00000000E+00
  0.00000000E+00  0.00000000E+00  0.00000000E+00
  0.00000000E+00  0.00000000E+00  0.00000000E+00
  0.00000000E+00  0.00000000E+00  0.00000000E+00
  0.00000000E+00  0.00000000E+00  0.00000000E+00
  0.00000000E+00  0.00000000E+00  0.00000000E+00
  0.00000000E+00  0.00000000E+00  0.00000000E+00
  0.00000000E+00  0.00000000E+00  0.00000000E+00
  0.00000000E+00  0.00000000E+00  0.00000000E+00
  0.00000000E+00  0.00000000E+00  0.00000000E+00
  0.00000000E+00  0.00000000E+00  0.00000000E+00
  0.00000000E+00  0.00000000E+00  0.00000000E+00
  0.00000000E+00  0.00000000E+00  0.00000000E+00
  0.00000000E+00  0.00000000E+00  0.00000000E+00
  0.00000000E+00  0.00000000E+00  0.00000000E+00
  0.00000000E+00  0.00000000E+00  0.00000000E+00
  0.00000000E+00  0.00000000E+00  0.00000000E+00
  0.00000000E+00  0.00000000E+00  0.00000000E+00
  0.00000000E+00  0.00000000E+00  0.00000000E+00
  0.00000000E+00  0.00000000E+00  0.00000000E+00
  0.00000000E+00  0.00000000E+00  0.00000000E+00
  0.00000000E+00  0.00000000E+00  0.00000000E+00
  0.00000000E+00  0.00000000E+00  0.00000000E+00
  0.00000000E+00  0.00000000E+00  0.00000000E+00
  0.00000000E+00  0.00000000E+00  0.00000000E+00
  0.00000000E+00  0.00000000E+00  0.00000000E+00
  0.00000000E+00  0.00000000E+00  0.00000000E+00
  0.00000000E+00  0.00000000E+00  0.00000000E+00
  0.00000000E+00  0.00000000E+00  0.00000000E+00
  0.00000000E+00  0.00000000E+00  0.00000000E+00
  0.00000000E+00  0.00000000E+00  0.00000000E+00
  0.00000000E+00  0.00000000E+00  0.00000000E+00
  0.00000000E+00  0.00000000E+00  0.00000000E+00
  0.00000000E+00  0.00000000E+00  0.00000000E+00
  0.00000000E+00  0.00000000E+00  0.00000000E+00
  0.00000000E+00  0.00000000E+00  0.00000000E+00
  0.00000000E+00  0.00000000E+00  0.00000000E+00
  0.00000000E+00  0.00000000E+00  0.00000000E+00
  0.00000000E+00  0.00000000E+00  0.00000000E+00
  0.00000000E+00  0.00000000E+00  0.00000000E+00
  0.00000000E+00  0.00000000E+00  0.00000000E+00
  0.00000000E+00  0.00000000E+00  0.00000000E+00
  0.00000000E+00  0.00000000E+00  0.00000000E+00
  0.00000000E+00  0.00000000E+00  0.00000000E+00
  0.00000000E+00  0.00000000E+00  0.00000000E+00
  0.00000000E+00  0.00000000E+00  0.00000000E+00
  0.00000000E+00  0.00000000E+00  0.00000000E+00
  0.00000000E+00  0.00000000E+00  0.00000000E+00
  0.00000000E+00  0.00000000E+00  0.00000000E+00
  0.00000000E+00  0.00000000E+00  0.00000000E+00
  0.00000000E+00  0.00000000E+00  0.00000000E+00
  0.00000000E+00  0.00000000E+00  0.00000000E+00
  0.00000000E+00  0.00000000E+00  0.00000000E+00
  0.00000000E+00  0.00000000E+00  0.00000000E+00
  0.00000000E+00  0.00000000E+00  0.00000000E+00
  0.00000000E+00  0.00000000E+00  0.00000000E+00
  0.00000000E+00  0.00000000E+00  0.00000000E+00
  0.00000000E+00  0.00000000E+00  0.00000000E+00
  0.00000000E+00  0.00000000E+00  0.00000000E+00
  0.00000000E+00  0.00000000E+00  0.00000000E+00
  0.00000000E+00  0.00000000E+00  0.00000000E+00
  0.00000000E+00  0.00000000E+00  0.00000000E+00
  0.00000000E+00  0.00000000E+00  0.00000000E+00
  0.00000000E+00  0.00000000E+00  0.00000000E+00
  0.00000000E+00  0.00000000E+00  0.00000000E+00
  0.00000000E+00  0.00000000E+00  0.00000000E+00
  0.00000000E+00  0.00000000E+00  0.00000000E+00
  0.00000000E+00  0.00000000E+00  0.00000000E+00
  0.00000000E+00  0.00000000E+00  0.00000000E+00
  0.00000000E+00  0.00000000E+00  0.00000000E+00
  0.00000000E+00  0.00000000E+00  0.00000000E+00
  0.00000000E+00  0.00000000E+00  0.00000000E+00
  0.00000000E+00  0.00000000E+00  0.00000000E+00
  0.00000000E+00  0.00000000E+00  0.00000000E+00
  0.00000000E+00  0.00000000E+00  0.00000000E+00
  0.00000000E+00  0.00000000E+00  0.00000000E+00
  0.00000000E+00  0.00000000E+00  0.00000000E+00
  0.00000000E+00  0.00000000E+00  0.00000000E+00
  0.00000000E+00  0.00000000E+00  0.00000000E+00
  0.00000000E+00  0.00000000E+00  0.00000000E+00
  0.00000000E+00  0.00000000E+00  0.00000000E+00
  0.00000000E+00  0.00000000E+00  0.00000000E+00
  0.00000000E+00  0.00000000E+00  0.00000000E+00
  0.00000000E+00  0.00000000E+00  0.00000000E+00
  0.00000000E+00  0.00000000E+00  0.00000000E+00
  0.00000000E+00  0.00000000E+00  0.00000000E+00
  0.00000000E+00  0.00000000E+00  0.00000000E+00
  0.00000000E+00  0.00000000E+00  0.00000000E+00
  0.00000000E+00  0.00000000E+00  0.00000000E+00
